92162956009270287 -1 0
496887780571101286 -2 0
380425058746854646 -3 0
239572621236428132 -4 0
705065639254229894 -5 0
180331395748207456 -6 0
687506329552410413 -7 0
682908725563722920 -8 0
h -9 -10 0
188208891749830262 -11 0
h 12 13 0
h 14 -15 0
629451173212583505 -16 0
h 7 17 0
h -14 18 0
50487108294431734 -19 0
253758500810253374 -20 0
695476010783600733 -21 0
629537706391814330 -22 0
h -12 21 0
638453887671509166 -23 0
416235679630550718 -24 0
h 10 25 0
198339433272192490 -26 0
234678739301060093 -25 0
h 15 7 0
h 2 17 0
121439845441275521 -27 0
h 5 9 0
109967083733970524 -28 0
459870883376017469 -29 0
482880421384007571 -18 0
h -14 20 0
512819307150575015 -30 0
330618256896264438 -31 0
290943004787454650 -32 0
492465250512283687 -33 0
h -17 -13 10 0
59426185433428099 -34 0
571842900105013057 -35 0
482681151291545658 -36 0
